# Solution for model r5_t9_m9_3
# Finished Task: 9 / 9
# Makespan: 484.0, Total Distance: 196.0, Total Time: 14.3538
# R O S F
0 0 -1 52.0 52.0
1 1 13 153.0 153.0
2 2 -1 90.0 90.0
3 3 8 59.0 59.0
4 4 9 100.0 100.0
5 4 -1 347.0 381.0
6 1 11 424.0 450.0
7 1 6 263.0 285.0
8 3 12 281.0 309.0
9 4 5 285.0 315.0
10 3 -1 397.0 424.0
11 1 -1 450.0 484.0
12 3 10 335.0 368.0
13 1 7 231.0 252.0
